40
234
7
68
13
66
93
91
73
94
0 5
0 6
0 8
0 13
0 15
0 18
0 21
0 24
0 27
0 30
0 37
1 2
1 9
1 11
1 12
1 16
1 20
1 23
1 26
1 27
1 30
1 33
1 34
1 36
1 38
2 3
2 5
2 6
2 8
2 10
2 13
2 14
2 16
2 25
2 27
2 28
2 32
2 35
2 39
3 4
3 5
3 11
3 12
3 13
3 14
3 15
3 17
3 19
3 20
3 23
3 28
3 30
3 31
3 34
4 5
4 9
4 12
4 14
4 15
4 16
4 18
4 25
4 26
4 33
4 34
4 37
5 14
5 19
5 22
5 24
5 28
5 30
5 32
5 34
5 35
5 38
6 7
6 11
6 12
6 21
6 22
6 23
6 27
6 29
6 34
7 8
7 9
7 14
7 17
7 22
7 30
7 31
7 32
7 36
8 17
8 18
8 19
8 22
8 29
8 35
8 37
9 14
9 17
9 20
9 22
9 25
9 28
9 30
9 34
9 36
9 37
9 38
10 19
10 22
10 26
10 27
10 31
10 32
10 35
10 37
11 12
11 16
11 17
11 19
11 21
11 25
11 30
11 33
11 36
11 37
11 38
12 14
12 15
12 18
12 19
12 29
12 31
12 32
12 38
12 39
13 16
13 20
13 27
13 30
13 31
13 32
13 33
13 34
14 16
14 17
14 24
14 31
14 33
14 35
14 39
15 16
15 19
15 25
15 26
15 28
15 35
15 38
16 19
16 24
16 27
16 29
16 38
16 39
17 18
17 25
17 26
17 30
17 33
18 24
18 33
18 35
18 38
19 24
19 25
19 30
20 22
20 24
20 28
20 30
20 33
20 36
20 38
21 23
21 24
21 33
21 35
21 36
21 38
22 34
22 35
22 38
22 39
23 26
23 32
23 34
23 38
24 31
24 32
24 33
24 34
24 35
25 27
25 31
25 37
25 38
25 39
26 32
26 35
26 36
27 32
27 35
27 37
27 39
28 33
28 36
28 37
29 33
30 31
30 32
30 36
31 37
33 36
33 37
34 37
35 37
36 38
36 39
37 38
38 39
21 7 4 36 20 3
24 13 38 15 35 2
16 37 26 33 1 25
19 31 8 9 28 22
5 32 17 10 27 0
18 29 11 39 6 12
23 14 34 30
